p cnf 5 10
 1 3 4 6467670956523363516 6.222612997753082
 4
-3 -6467670956523363516 -4 1 3 4 5 6467670956523363516 0.8392286656394099 0
 4 5 6467670956523363516 5.822545963509331
-1 1 4 5 6467670956523363516 1.0847213427046598
 1 0
-1 -4 1 3 4 6467670956523363516
 1 3 4 0
